#----------DATA File-------------
param N_Nodes:= 5;
param N_Arcs:= 5;
param Budget:= 2;#Total resource available to the Interdictor
param Source_Node:= 1;
param Dest_Node:= 5;
param Node_Arc:
1 2 3 4 5:=
1 -1 1 0 0 0
2 0 -1 1 0 0
3 0 0 -1 0 1
4 0 -1 0 1 0
5 0 0 0 -1 1; #Each Row is an Arc Number
param: Arc_Length Arc_Delay Arc_Resource:=
1 3 3 1
2 1 4 1
3 8 5 1
4 4 1 1
5 6 3 1;
